100 8
823 405
784 852
161 417
283 356
691 275
72 554
535 323
711 749
926 142
652 234
179 194
770 866
855 625
541 291
762 237
693 295
286 327
861 627
797 655
211 331
217 546
572 210
871 275
774 439
413 427
185 24
362 14
197 410
591 749
48 650
668 343
414 388
759 236
282 96
693 294
787 145
326 265
256 13
316 273
629 429
629 332
659 338
937 854
382 313
946 346
229 15
742 581
767 327
790 230
464 324
882 729
809 278
627 202
352 305
477 366
844 747
254 167
209 379
759 849
293 217
840 285
599 311
616 235
925 265
139 570
764 186
336 69
342 129
447 377
207 49
723 187
635 782
321 339
676 345
395 187
361 133
823 693
280 296
714 727
86 571
717 786
651 291
878 744
806 199
241 349
608 430
734 413
635 756
149 478
644 846
974 353
707 725
181 184
491 375
77 608
269 423
655 244
234 347
589 912
966 325
